30
1 0 2
2 0 4
2 1 5
3 0 1
3 1 5
3 2 4
4 0 2
4 1 3
4 2 6
4 3 4
5 0 3
5 1 5
5 2 7
5 3 4
5 4 1
6 0 5
6 1 7
6 2 1
6 3 5
6 4 7
6 5 1
7 0 5
7 1 7
7 2 4
7 3 3
7 4 5
7 5 7
7 6 1
8 0 5
8 1 1
8 2 1
8 3 5
8 4 4
8 5 6
8 6 5
8 7 6
9 0 5
9 1 1
9 2 3
9 3 7
9 4 7
9 5 6
9 6 5
9 7 4
9 8 6
10 0 6
10 1 7
10 2 5
10 3 5
10 4 5
10 5 1
10 6 4
10 7 3
10 8 3
10 9 2
11 0 2
11 1 2
11 2 1
11 3 5
11 4 5
11 5 2
11 6 3
11 7 5
11 8 5
11 9 1
11 10 2
12 0 3
12 1 7
12 2 2
12 3 1
12 4 4
12 5 5
12 6 2
12 7 2
12 8 2
12 9 4
12 10 7
12 11 6
13 0 3
13 1 4
13 2 4
13 3 4
13 4 4
13 5 1
13 6 4
13 7 2
13 8 1
13 9 2
13 10 1
13 11 4
13 12 6
14 0 7
14 1 3
14 2 2
14 3 6
14 4 4
14 5 3
14 6 1
14 7 7
14 8 2
14 9 1
14 10 4
14 11 1
14 12 6
14 13 1
15 0 5
15 1 5
15 2 2
15 3 2
15 4 6
15 5 5
15 6 4
15 7 3
15 8 2
15 9 2
15 10 5
15 11 5
15 12 1
15 13 1
15 14 4
16 0 6
16 1 3
16 2 6
16 3 3
16 4 5
16 5 5
16 6 1
16 7 1
16 8 3
16 9 5
16 10 1
16 11 3
16 12 7
16 13 1
16 14 5
16 15 5
17 0 2
17 1 6
17 2 3
17 3 6
17 4 1
17 5 1
17 6 1
17 7 4
17 8 1
17 9 3
17 10 7
17 11 5
17 12 6
17 13 6
17 14 6
17 15 4
17 16 2
18 0 4
18 1 2
18 2 5
18 3 4
18 4 7
18 5 7
18 6 5
18 7 6
18 8 5
18 9 6
18 10 7
18 11 6
18 12 6
18 13 3
18 14 7
18 15 1
18 16 6
18 17 3
19 0 3
19 1 3
19 2 3
19 3 2
19 4 7
19 5 7
19 6 7
19 7 4
19 8 2
19 9 5
19 10 3
19 11 4
19 12 2
19 13 3
19 14 4
19 15 2
19 16 5
19 17 5
19 18 6
20 0 2
20 1 2
20 2 2
20 3 3
20 4 3
20 5 3
20 6 4
20 7 3
20 8 1
20 9 5
20 10 3
20 11 5
20 12 6
20 13 1
20 14 1
20 15 2
20 16 5
20 17 1
20 18 6
20 19 4
21 0 4
21 1 2
21 2 7
21 3 3
21 4 2
21 5 4
21 6 5
21 7 1
21 8 3
21 9 1
21 10 5
21 11 4
21 12 3
21 13 7
21 14 1
21 15 5
21 16 3
21 17 5
21 18 4
21 19 3
21 20 4
22 0 3
22 1 7
22 2 1
22 3 7
22 4 1
22 5 3
22 6 2
22 7 1
22 8 2
22 9 3
22 10 7
22 11 3
22 12 1
22 13 2
22 14 7
22 15 7
22 16 6
22 17 3
22 18 6
22 19 5
22 20 5
22 21 7
23 0 2
23 1 5
23 2 7
23 3 3
23 4 3
23 5 7
23 6 4
23 7 3
23 8 6
23 9 7
23 10 1
23 11 1
23 12 7
23 13 4
23 14 1
23 15 6
23 16 4
23 17 3
23 18 1
23 19 2
23 20 5
23 21 4
23 22 7
24 0 1
24 1 3
24 2 1
24 3 1
24 4 3
24 5 1
24 6 5
24 7 5
24 8 6
24 9 3
24 10 7
24 11 6
24 12 6
24 13 7
24 14 5
24 15 2
24 16 6
24 17 5
24 18 5
24 19 4
24 20 3
24 21 4
24 22 2
24 23 7
25 0 3
25 1 5
25 2 7
25 3 6
25 4 4
25 5 4
25 6 5
25 7 3
25 8 2
25 9 2
25 10 2
25 11 5
25 12 7
25 13 6
25 14 1
25 15 3
25 16 3
25 17 3
25 18 2
25 19 1
25 20 5
25 21 5
25 22 5
25 23 1
25 24 5
26 0 1
26 1 2
26 2 4
26 3 6
26 4 6
26 5 5
26 6 7
26 7 5
26 8 7
26 9 2
26 10 3
26 11 6
26 12 4
26 13 4
26 14 2
26 15 6
26 16 3
26 17 2
26 18 4
26 19 5
26 20 3
26 21 6
26 22 2
26 23 7
26 24 5
26 25 2
27 0 7
27 1 2
27 2 2
27 3 2
27 4 4
27 5 6
27 6 1
27 7 6
27 8 4
27 9 6
27 10 4
27 11 2
27 12 5
27 13 2
27 14 6
27 15 6
27 16 1
27 17 2
27 18 6
27 19 6
27 20 5
27 21 4
27 22 2
27 23 4
27 24 5
27 25 4
27 26 1
28 0 6
28 1 5
28 2 6
28 3 4
28 4 5
28 5 4
28 6 6
28 7 6
28 8 7
28 9 3
28 10 5
28 11 4
28 12 4
28 13 1
28 14 4
28 15 3
28 16 3
28 17 6
28 18 3
28 19 3
28 20 1
28 21 7
28 22 3
28 23 7
28 24 7
28 25 2
28 26 7
28 27 5
29 0 5
29 1 3
29 2 6
29 3 1
29 4 7
29 5 3
29 6 2
29 7 7
29 8 4
29 9 2
29 10 1
29 11 7
29 12 3
29 13 1
29 14 5
29 15 5
29 16 4
29 17 7
29 18 6
29 19 7
29 20 7
29 21 6
29 22 7
29 23 4
29 24 2
29 25 1
29 26 4
29 27 1
29 28 6
